975 580 1340 725
845 655 1605 620
1740 245 1740 245
1465 200 1530 5
1605 620 1465 200
1215 245 1215 245
725 370 830 485
605 625 700 500
575 665 700 580
685 610 685 595
685 595 685 610
700 580 720 635
830 610 770 610
835 625 835 625
1170 65 830 610
410 250 845 655
480 415 480 415
560 365 560 365
875 920 605 625
1220 580 575 665
880 660 875 920
1530 5 760 650
1250 400 795 645
1320 315 845 680
830 485 880 660
700 500 945 685
760 650 1150 1160
795 645 650 1130
720 635 580 1175
845 680 525 1000
555 815 475 960
510 875 420 555
525 1000 415 635
420 555 410 250
300 465 660 180
415 635 725 370
345 750 555 815
660 180 510 875
145 665 95 260
1150 1160 25 230
650 1130 25 185
580 1175 300 465
565 575 520 585
25 230 565 575
475 960 145 665
95 260 345 750
25 185 595 360
520 585 1220 580
945 685 1320 315
595 360 1250 400
770 610 1170 65
1340 725 975 580
